(set-logic HORN)
(set-info :source |
    Benchmark: C_VC
    Output by Princess (http://www.philipp.ruemmer.org/princess.shtml)
|)
(set-info :status unsat)
;===============================================================================
; Encoding of Heap sorts and operations
;-------------------------------------------------------------------------------
(define-sort Addr() Int)
(declare-datatypes ((HeapObject 0) (node 0))
                   (((O_Int (getInt Int)) (O_UInt (getUInt Int)) (O_Addr (getAddr Addr)) (O_node (getnode node)) (defObj))
                   ((node (h Int) (n Addr)))))
(declare-datatypes ((AllocResHeap 0) (Heap 0))
                   (((AllocResHeap   (newHeap Heap) (newAddr Addr)))
                    ((HeapCtor (HeapSize Int)
                               (HeapContents (Array Addr HeapObject))))))
(define-fun nullAddr  () Addr 0)
(define-fun valid     ((h Heap) (p Addr)) Bool
  (and (>= (HeapSize h) p) (> p 0)))
(define-fun emptyHeap () Heap (
  HeapCtor 0 (( as const (Array Addr HeapObject)) defObj)))
(define-fun read ((h Heap) (p Addr)) HeapObject
  (ite (valid h p)
       (select (HeapContents h) p)
       defObj))
(define-fun write ((h Heap) (p Addr) (o HeapObject)) Heap
  (ite (valid h p)
       (HeapCtor (HeapSize h) (store (HeapContents h) p o))
       h))
(define-fun alloc   ((h Heap) (o HeapObject)) AllocResHeap
  (AllocResHeap (HeapCtor (+ 1 (HeapSize h))
                    (store (HeapContents h) (+ 1 (HeapSize h)) o))
          (+ 1 (HeapSize h))))

;===============================================================================
(declare-fun inv_main11 (Heap Int Addr Addr Addr Int) Bool)
(declare-fun inv_main15 (Heap Int Addr Addr Addr) Bool)
(declare-fun inv_main16 (Heap Int Addr Addr Addr) Bool)
(declare-fun inv_main2 (Heap) Bool)
(declare-fun inv_main20 (Heap Int Addr Addr Addr) Bool)
(declare-fun inv_main21 (Heap Int Addr Addr Addr) Bool)
(declare-fun inv_main26 (Heap Int Addr Addr Addr) Bool)
(declare-fun inv_main29 (Heap Int Addr Addr Addr Int) Bool)
(declare-fun inv_main33 (Heap Int Addr Addr Addr) Bool)
(declare-fun inv_main38 (Heap Int Addr Addr Addr) Bool)
(declare-fun inv_main39 (Heap Int Addr Addr Addr) Bool)
(declare-fun inv_main40 (Heap Int Addr Addr Addr) Bool)
(declare-fun inv_main41 (Heap Int Addr Addr Addr) Bool)
(declare-fun inv_main44 (Heap Int Addr Addr Addr) Bool)
(declare-fun inv_main48 (Heap Int Addr Addr Addr) Bool)
(assert (inv_main2 emptyHeap))
(assert (forall ((var0 Int) (var1 Addr) (var2 Addr) (var3 Addr) (var4 Int) (var5 Heap)) (or (not (inv_main11 var5 var4 var3 var2 var1 var0)) (inv_main11 var5 var4 var3 var2 var1 var0))))
(assert (forall ((var0 Addr) (var1 Addr) (var2 Addr) (var3 Addr) (var4 Addr) (var5 Addr) (var6 Int) (var7 Int) (var8 node) (var9 Heap) (var10 Addr) (var11 Heap)) (or (not (and (inv_main2 var11) (and (= var10 nullAddr) (and (and (and (and (and (= var9 (newHeap (alloc var11 (O_node var8)))) (= var7 var6)) (= var5 var4)) (= var3 var2)) (= var1 var0)) (= var10 (newAddr (alloc var11 (O_node var8)))))))) (inv_main11 var9 var7 var5 var10 var1 1))))
(assert (forall ((var0 Addr) (var1 Addr) (var2 Addr) (var3 Int) (var4 Heap) (var5 Int) (var6 Addr) (var7 Addr) (var8 Addr) (var9 Int) (var10 Heap)) (or (not (and (inv_main40 var10 var9 var8 var7 var6) (and (and (= var5 2) (is-O_node (read var10 var8))) (and (and (and (and (and (= var4 var10) (= var3 var9)) (= var2 var8)) (= var1 var7)) (= var0 var6)) (= var5 (h (getnode (read var10 var8)))))))) (inv_main44 var4 var3 var2 var1 var0))))
(assert (forall ((var0 Int) (var1 Addr) (var2 Addr) (var3 Addr) (var4 Int) (var5 Heap)) (or (not (inv_main29 var5 var4 var3 var2 var1 var0)) (inv_main29 var5 var4 var3 var2 var1 var0))))
(assert (forall ((var0 Addr) (var1 Addr) (var2 Addr) (var3 Addr) (var4 Addr) (var5 Addr) (var6 Int) (var7 Int) (var8 node) (var9 Heap) (var10 Heap) (var11 Addr) (var12 Addr) (var13 Addr) (var14 Addr) (var15 Int) (var16 Heap)) (or (not (and (inv_main20 var16 var15 var14 var13 var12) (and (and (= var11 nullAddr) (and (and (and (and (and (= var10 (newHeap (alloc var9 (O_node var8)))) (= var7 var6)) (= var5 var4)) (= var3 var2)) (= var1 var0)) (= var11 (newAddr (alloc var9 (O_node var8)))))) (and (is-O_node (read var16 var14)) (and (and (and (and (= var9 (write var16 var14 (O_node (node 1 (n (getnode (read var16 var14))))))) (= var6 var15)) (= var4 var14)) (= var2 var13)) (= var0 var12)))))) (inv_main29 var10 var7 var5 var3 var11 1))))
(assert (forall ((var0 Addr) (var1 Addr) (var2 Addr) (var3 Addr) (var4 Addr) (var5 Addr) (var6 Int) (var7 Int) (var8 node) (var9 Heap) (var10 Heap) (var11 Addr) (var12 Addr) (var13 Addr) (var14 Addr) (var15 Int) (var16 Heap)) (or (not (and (inv_main21 var16 var15 var14 var13 var12) (and (and (= var11 nullAddr) (and (and (and (and (and (= var10 (newHeap (alloc var9 (O_node var8)))) (= var7 var6)) (= var5 var4)) (= var3 var2)) (= var1 var0)) (= var11 (newAddr (alloc var9 (O_node var8)))))) (and (is-O_node (read var16 var14)) (and (and (and (and (= var9 (write var16 var14 (O_node (node 2 (n (getnode (read var16 var14))))))) (= var6 var15)) (= var4 var14)) (= var2 var13)) (= var0 var12)))))) (inv_main29 var10 var7 var5 var3 var11 1))))
(assert (forall ((var0 Addr) (var1 Addr) (var2 Addr) (var3 Int) (var4 Heap) (var5 Int) (var6 Addr) (var7 Addr) (var8 Addr) (var9 Int) (var10 Heap)) (or (not (and (inv_main39 var10 var9 var8 var7 var6) (and (and (not (= var5 1)) (is-O_node (read var10 var8))) (and (and (and (and (and (= var4 var10) (= var3 var9)) (= var2 var8)) (= var1 var7)) (= var0 var6)) (= var5 (h (getnode (read var10 var8)))))))) (inv_main38 var4 var3 var2 var1 var0))))
(assert (forall ((var0 Addr) (var1 Addr) (var2 Addr) (var3 Int) (var4 Heap) (var5 Int) (var6 Addr) (var7 Addr) (var8 Addr) (var9 Int) (var10 Heap)) (or (not (and (inv_main40 var10 var9 var8 var7 var6) (and (and (not (= var5 2)) (is-O_node (read var10 var8))) (and (and (and (and (and (= var4 var10) (= var3 var9)) (= var2 var8)) (= var1 var7)) (= var0 var6)) (= var5 (h (getnode (read var10 var8)))))))) (inv_main38 var4 var3 var2 var1 var0))))
(assert (forall ((var0 Addr) (var1 Addr) (var2 Addr) (var3 Addr) (var4 Addr) (var5 Addr) (var6 Int) (var7 Int) (var8 node) (var9 Heap) (var10 Heap) (var11 Addr) (var12 Addr) (var13 Addr) (var14 Addr) (var15 Int) (var16 Heap)) (or (not (and (inv_main20 var16 var15 var14 var13 var12) (and (and (not (= var11 nullAddr)) (and (and (and (and (and (= var10 (newHeap (alloc var9 (O_node var8)))) (= var7 var6)) (= var5 var4)) (= var3 var2)) (= var1 var0)) (= var11 (newAddr (alloc var9 (O_node var8)))))) (and (is-O_node (read var16 var14)) (and (and (and (and (= var9 (write var16 var14 (O_node (node 1 (n (getnode (read var16 var14))))))) (= var6 var15)) (= var4 var14)) (= var2 var13)) (= var0 var12)))))) (inv_main26 var10 var7 var5 var3 var11))))
(assert (forall ((var0 Addr) (var1 Addr) (var2 Addr) (var3 Addr) (var4 Addr) (var5 Addr) (var6 Int) (var7 Int) (var8 node) (var9 Heap) (var10 Heap) (var11 Addr) (var12 Addr) (var13 Addr) (var14 Addr) (var15 Int) (var16 Heap)) (or (not (and (inv_main21 var16 var15 var14 var13 var12) (and (and (not (= var11 nullAddr)) (and (and (and (and (and (= var10 (newHeap (alloc var9 (O_node var8)))) (= var7 var6)) (= var5 var4)) (= var3 var2)) (= var1 var0)) (= var11 (newAddr (alloc var9 (O_node var8)))))) (and (is-O_node (read var16 var14)) (and (and (and (and (= var9 (write var16 var14 (O_node (node 2 (n (getnode (read var16 var14))))))) (= var6 var15)) (= var4 var14)) (= var2 var13)) (= var0 var12)))))) (inv_main26 var10 var7 var5 var3 var11))))
(assert (forall ((var0 Int) (var1 Addr) (var2 Addr) (var3 Addr) (var4 Int) (var5 Heap)) (or (not (and (inv_main15 var5 var4 var3 var2 var1) (and (= var4 0) (not (= var0 0))))) (inv_main21 var5 var4 var3 var2 var1))))
(assert (forall ((var0 Addr) (var1 Addr) (var2 Addr) (var3 Addr) (var4 Int) (var5 Heap) (var6 Addr) (var7 Addr) (var8 Addr) (var9 Int) (var10 Heap)) (or (not (and (inv_main44 var10 var9 var8 var7 var6) (and (is-O_node (read var10 var8)) (and (and (and (and (and (= var5 var10) (= var4 var9)) (= var3 var8)) (= var2 var7)) (= var1 var6)) (= var0 (n (getnode (read var10 var8)))))))) (inv_main40 var5 var4 var0 var2 var1))))
(assert (forall ((var0 Addr) (var1 Addr) (var2 Addr) (var3 Heap) (var4 Int) (var5 Addr) (var6 Addr) (var7 Addr) (var8 Int) (var9 Heap)) (or (not (and (inv_main16 var9 var8 var7 var6 var5) (and (= var4 0) (and (is-O_node (read var9 var7)) (and (and (and (and (= var3 (write var9 var7 (O_node (node 3 (n (getnode (read var9 var7))))))) (= var4 var8)) (= var2 var7)) (= var1 var6)) (= var0 var5)))))) (inv_main40 var3 var4 var1 var1 var0))))
(assert (forall ((var0 Addr) (var1 Addr) (var2 Addr) (var3 Int) (var4 Heap) (var5 Int) (var6 Addr) (var7 Addr) (var8 Addr) (var9 Int) (var10 Heap)) (or (not (and (inv_main39 var10 var9 var8 var7 var6) (and (and (= var5 1) (is-O_node (read var10 var8))) (and (and (and (and (and (= var4 var10) (= var3 var9)) (= var2 var8)) (= var1 var7)) (= var0 var6)) (= var5 (h (getnode (read var10 var8)))))))) (inv_main41 var4 var3 var2 var1 var0))))
(assert (forall ((var0 Int) (var1 Addr) (var2 Addr) (var3 Addr) (var4 Int) (var5 Heap)) (or (not (and (inv_main15 var5 var4 var3 var2 var1) (= var0 0))) (inv_main16 var5 var4 var3 var2 var1))))
(assert (forall ((var0 Addr) (var1 Addr) (var2 Addr) (var3 Int) (var4 Heap)) (or (not (and (inv_main26 var4 var3 var2 var1 var0) (is-O_node (read var4 var2)))) (inv_main33 (write var4 var2 (O_node (node (h (getnode (read var4 var2))) var0))) var3 var2 var1 var0))))
(assert (forall ((var0 Addr) (var1 Addr) (var2 Addr) (var3 Addr) (var4 Int) (var5 Heap) (var6 Addr) (var7 Addr) (var8 Addr) (var9 Int) (var10 Heap)) (or (not (and (inv_main41 var10 var9 var8 var7 var6) (and (is-O_node (read var10 var8)) (and (and (and (and (and (= var5 var10) (= var4 var9)) (= var3 var8)) (= var2 var7)) (= var1 var6)) (= var0 (n (getnode (read var10 var8)))))))) (inv_main39 var5 var4 var0 var2 var1))))
(assert (forall ((var0 Addr) (var1 Addr) (var2 Addr) (var3 Heap) (var4 Int) (var5 Addr) (var6 Addr) (var7 Addr) (var8 Int) (var9 Heap)) (or (not (and (inv_main16 var9 var8 var7 var6 var5) (and (not (= var4 0)) (and (is-O_node (read var9 var7)) (and (and (and (and (= var3 (write var9 var7 (O_node (node 3 (n (getnode (read var9 var7))))))) (= var4 var8)) (= var2 var7)) (= var1 var6)) (= var0 var5)))))) (inv_main39 var3 var4 var1 var1 var0))))
(assert (forall ((var0 Addr) (var1 Addr) (var2 Addr) (var3 Int) (var4 Heap) (var5 Int) (var6 Addr) (var7 Addr) (var8 Addr) (var9 Int) (var10 Heap)) (or (not (and (inv_main38 var10 var9 var8 var7 var6) (and (and (not (= var5 3)) (is-O_node (read var10 var8))) (and (and (and (and (and (= var4 var10) (= var3 var9)) (= var2 var8)) (= var1 var7)) (= var0 var6)) (= var5 (h (getnode (read var10 var8)))))))) (inv_main48 var4 var3 var2 var1 var0))))
(assert (forall ((var0 Addr) (var1 Addr) (var2 Addr) (var3 Addr) (var4 Int) (var5 Heap) (var6 Addr) (var7 Addr) (var8 Addr) (var9 Int) (var10 Heap)) (or (not (and (inv_main33 var10 var9 var8 var7 var6) (and (is-O_node (read var10 var8)) (and (and (and (and (and (= var5 var10) (= var4 var9)) (= var3 var8)) (= var2 var7)) (= var1 var6)) (= var0 (n (getnode (read var10 var8)))))))) (inv_main15 var5 var4 var0 var2 var1))))
(assert (forall ((var0 Addr) (var1 Addr) (var2 Addr) (var3 Addr) (var4 Addr) (var5 Addr) (var6 Int) (var7 Int) (var8 node) (var9 Heap) (var10 Addr) (var11 Heap)) (or (not (and (inv_main2 var11) (and (not (= var10 nullAddr)) (and (and (and (and (and (= var9 (newHeap (alloc var11 (O_node var8)))) (= var7 var6)) (= var5 var4)) (= var3 var2)) (= var1 var0)) (= var10 (newAddr (alloc var11 (O_node var8)))))))) (inv_main15 var9 var7 var10 var10 var1))))
(assert (forall ((var0 Int) (var1 Addr) (var2 Addr) (var3 Addr) (var4 Int) (var5 Heap)) (or (not (and (inv_main15 var5 var4 var3 var2 var1) (and (not (= var4 0)) (not (= var0 0))))) (inv_main20 var5 var4 var3 var2 var1))))
(assert (forall ((var0 Addr) (var1 Addr) (var2 Addr) (var3 Int) (var4 Heap)) (not (and (inv_main20 var4 var3 var2 var1 var0) (not (is-O_node (read var4 var2)))))))
(assert (forall ((var0 Addr) (var1 Addr) (var2 Addr) (var3 Int) (var4 Heap)) (not (and (inv_main21 var4 var3 var2 var1 var0) (not (is-O_node (read var4 var2)))))))
(assert (forall ((var0 Addr) (var1 Addr) (var2 Addr) (var3 Int) (var4 Heap)) (not (and (inv_main26 var4 var3 var2 var1 var0) (not (is-O_node (read var4 var2)))))))
(assert (forall ((var0 Addr) (var1 Addr) (var2 Addr) (var3 Int) (var4 Heap)) (not (and (inv_main33 var4 var3 var2 var1 var0) (not (is-O_node (read var4 var2)))))))
(assert (forall ((var0 Addr) (var1 Addr) (var2 Addr) (var3 Int) (var4 Heap)) (not (and (inv_main16 var4 var3 var2 var1 var0) (not (is-O_node (read var4 var2)))))))
(assert (forall ((var0 Addr) (var1 Addr) (var2 Addr) (var3 Int) (var4 Heap)) (not (and (inv_main39 var4 var3 var2 var1 var0) (not (is-O_node (read var4 var2)))))))
(assert (forall ((var0 Addr) (var1 Addr) (var2 Addr) (var3 Int) (var4 Heap)) (not (and (inv_main41 var4 var3 var2 var1 var0) (not (is-O_node (read var4 var2)))))))
(assert (forall ((var0 Addr) (var1 Addr) (var2 Addr) (var3 Int) (var4 Heap)) (not (and (inv_main40 var4 var3 var2 var1 var0) (not (is-O_node (read var4 var2)))))))
(assert (forall ((var0 Addr) (var1 Addr) (var2 Addr) (var3 Int) (var4 Heap)) (not (and (inv_main44 var4 var3 var2 var1 var0) (not (is-O_node (read var4 var2)))))))
(assert (forall ((var0 Addr) (var1 Addr) (var2 Addr) (var3 Int) (var4 Heap)) (not (and (inv_main38 var4 var3 var2 var1 var0) (not (is-O_node (read var4 var2)))))))
(assert (forall ((var0 Addr) (var1 Addr) (var2 Addr) (var3 Int) (var4 Heap)) (not (inv_main48 var4 var3 var2 var1 var0))))
(check-sat)
